
;this file is automatically generated: Tue Oct 27 10:35:00 CST 2020

;declarations generated

(declare-fun oclExcludes ( Int Int) Bool)
(declare-fun Cardinality ( Int) Int)
(declare-fun obj_40ac9bdc_1728_44bc_acb6_b6e3e9732559 ( Int) Int)
(declare-fun class31_Class31IntAttr1 ( Int) Int)
(declare-fun type_8e5eba86_6466_48dc_a4f0_d97433046de5_Class8 ( Int) Bool)
(declare-fun oclSelect ( Int Bool) Int)
(declare-fun Enum0 ( Int) Int)
(declare-fun Enum1 ( Int) Int)
(declare-fun Enum2 ( Int) Int)
(declare-fun container_ ( Int) Int)
(declare-fun oclIncludes ( Int Int) Bool)
(declare-fun type_8e5eba86_6466_48dc_a4f0_d97433046de5_Class24 ( Int) Bool)
(declare-fun type_8e5eba86_6466_48dc_a4f0_d97433046de5_Class31 ( Int) Bool)
(declare-fun ObjAt ( Int Int) Int)

;formula(s) generated
(assert (! (forall ((v Int)) (=> (and (and ( type_8e5eba86_6466_48dc_a4f0_d97433046de5_Class31 v )  ( type_8e5eba86_6466_48dc_a4f0_d97433046de5_Class24 v ) ) ( type_8e5eba86_6466_48dc_a4f0_d97433046de5_Class8 v ) ) (<= ( class31_Class31IntAttr1 ( obj_40ac9bdc_1728_44bc_acb6_b6e3e9732559 v )  )  0))):named l0))
(assert (exists ((o Int)) (and (and ( type_8e5eba86_6466_48dc_a4f0_d97433046de5_Class31 ( obj_40ac9bdc_1728_44bc_acb6_b6e3e9732559 o )  )  ( type_8e5eba86_6466_48dc_a4f0_d97433046de5_Class24 ( obj_40ac9bdc_1728_44bc_acb6_b6e3e9732559 o )  ) ) ( type_8e5eba86_6466_48dc_a4f0_d97433046de5_Class8 ( obj_40ac9bdc_1728_44bc_acb6_b6e3e9732559 o )  ) )))

 ;end of formula 